NAME: PointSet_Angle_15_3
TYPE: TSP
COMMENT: Points chosen discrete uniformly at random out of ${0, \ldots, 500}^2$.
DIMENSION: 15
EDGE_WEIGHT_TYPE: EUC_2D
NODE_COORD_SECTION
1 256 425
2 387 480
3 374 393
4 33 246
5 276 449
6 254 176
7 319 360
8 18 437
9 321 121
10 344 480
11 447 357
12 428 278
13 381 339
14 157 311
15 160 369
EOF
